# Objective value = 26
C 26
f(1,0) 0
x(4,1,0) 1
x(1,2,0) 0
f(2,0) 1
f(3,0) 1
x(2,4,0) 0
x(3,4,0) 1
f(4,0) 0
f(1,1) 0
x(4,1,1) 0
f(1,2) 0
x(4,1,2) 0
f(1,3) 0
x(4,1,3) 0
f(1,4) 1
x(4,1,4) 0
f(1,5) 1
x(4,1,5) 0
f(1,6) 1
x(4,1,6) 0
f(1,7) 1
x(4,1,7) 0
x(2,1,7) 0
x(1,1,7) 0
f(1,8) 0
x(4,1,8) 0
x(2,1,8) 0
x(3,1,8) 1
x(1,1,8) 0
f(1,9) 0
x(4,1,9) 0
x(2,1,9) 0
x(3,1,9) 0
x(1,1,9) 0
f(1,10) 0
x(4,1,10) 0
x(2,1,10) 0
x(3,1,10) 0
x(1,1,10) 0
f(1,11) 0
x(4,1,11) 0
x(2,1,11) 0
x(3,1,11) 0
x(1,1,11) 0
f(1,12) 0
x(4,1,12) 0
x(2,1,12) 0
x(3,1,12) 0
x(1,1,12) 0
f(1,13) 1
x(4,1,13) 0
x(2,1,13) 0
x(3,1,13) 0
x(1,1,13) 0
f(1,14) 1
x(4,1,14) 0
x(2,1,14) 0
x(3,1,14) 0
x(1,1,14) 0
f(1,15) 1
x(2,1,15) 0
x(3,1,15) 0
x(1,1,15) 0
f(1,16) 0
x(2,1,16) 1
x(3,1,16) 0
x(1,1,16) 0
f(1,17) 0
x(2,1,17) 0
x(3,1,17) 0
x(1,1,17) 0
f(1,18) 0
x(2,1,18) 0
x(3,1,18) 0
x(1,1,18) 0
f(1,19) 1
x(2,1,19) 0
x(3,1,19) 0
x(1,1,19) 0
f(1,20) 1
x(2,1,20) 0
x(3,1,20) 0
x(1,1,20) 0
f(1,21) 1
x(2,1,21) 0
x(1,1,21) 0
f(1,22) 1
x(2,1,22) 0
x(1,1,22) 0
f(1,23) 0
x(2,1,23) 0
x(1,1,23) 1
f(1,24) 0
x(2,1,24) 0
x(1,1,24) 0
f(1,25) 1
x(1,1,25) 0
f(1,26) 1
x(1,1,26) 0
f(1,27) 1
x(1,1,27) 0
f(1,28) 1
x(1,1,28) 0
f(1,29) 1
f(1,30) 1
x(1,2,1) 0
f(2,1) 1
x(1,2,2) 0
f(2,2) 1
x(1,2,3) 0
f(2,3) 1
x(1,2,4) 0
f(2,4) 1
x(1,2,5) 0
f(2,5) 1
x(1,2,6) 0
f(2,6) 1
x(1,2,7) 1
f(2,7) 0
x(1,2,8) 0
f(2,8) 1
x(1,2,9) 0
f(2,9) 1
x(1,2,10) 0
f(2,10) 1
x(2,2,10) 0
x(1,2,11) 0
f(2,11) 1
x(2,2,11) 0
x(4,2,11) 0
x(1,2,12) 0
f(2,12) 1
x(2,2,12) 0
x(4,2,12) 0
x(1,2,13) 0
f(2,13) 0
x(2,2,13) 0
x(3,2,13) 1
x(4,2,13) 0
x(1,2,14) 0
f(2,14) 0
x(2,2,14) 0
x(3,2,14) 0
x(4,2,14) 0
x(1,2,15) 0
f(2,15) 0
x(2,2,15) 0
x(3,2,15) 0
x(4,2,15) 0
x(1,2,16) 0
f(2,16) 0
x(2,2,16) 0
x(3,2,16) 0
x(4,2,16) 0
x(1,2,17) 0
f(2,17) 0
x(2,2,17) 0
x(3,2,17) 0
x(4,2,17) 0
x(1,2,18) 0
f(2,18) 0
x(2,2,18) 0
x(3,2,18) 0
x(4,2,18) 1
x(1,2,19) 0
f(2,19) 0
x(2,2,19) 0
x(3,2,19) 0
x(4,2,19) 0
x(1,2,20) 0
f(2,20) 0
x(2,2,20) 0
x(3,2,20) 0
x(4,2,20) 0
x(1,2,21) 0
f(2,21) 0
x(2,2,21) 0
x(3,2,21) 0
x(4,2,21) 0
f(2,22) 0
x(2,2,22) 0
x(3,2,22) 0
x(4,2,22) 0
f(2,23) 0
x(2,2,23) 1
x(3,2,23) 0
x(4,2,23) 0
f(2,24) 0
x(2,2,24) 0
x(3,2,24) 0
x(4,2,24) 0
f(2,25) 0
x(2,2,25) 0
x(3,2,25) 0
x(4,2,25) 0
f(2,26) 1
x(2,2,26) 0
f(2,27) 1
x(2,2,27) 0
f(2,28) 1
f(2,29) 1
f(2,30) 1
x(1,3,1) 0
f(3,1) 1
x(1,3,2) 0
f(3,2) 1
x(1,3,3) 0
x(3,3,3) 1
f(3,3) 0
x(1,3,4) 0
x(2,3,4) 0
x(3,3,4) 0
x(4,3,4) 0
f(3,4) 0
x(1,3,5) 0
x(2,3,5) 0
x(3,3,5) 0
x(4,3,5) 0
f(3,5) 0
x(1,3,6) 0
x(2,3,6) 0
x(3,3,6) 0
x(4,3,6) 0
f(3,6) 0
x(1,3,7) 0
x(2,3,7) 0
x(3,3,7) 0
x(4,3,7) 0
f(3,7) 0
x(1,3,8) 0
x(2,3,8) 1
x(3,3,8) 0
x(4,3,8) 0
f(3,8) 0
x(1,3,9) 0
x(2,3,9) 0
x(3,3,9) 0
x(4,3,9) 0
f(3,9) 0
x(1,3,10) 0
x(2,3,10) 0
x(3,3,10) 0
x(4,3,10) 0
f(3,10) 0
x(1,3,11) 0
x(2,3,11) 0
x(3,3,11) 0
x(4,3,11) 1
f(3,11) 0
x(1,3,12) 0
x(2,3,12) 0
x(3,3,12) 0
x(4,3,12) 0
f(3,12) 0
x(1,3,13) 0
x(2,3,13) 0
x(3,3,13) 0
x(4,3,13) 0
f(3,13) 0
x(1,3,14) 0
x(2,3,14) 0
x(3,3,14) 0
x(4,3,14) 0
f(3,14) 0
x(1,3,15) 0
x(2,3,15) 0
x(3,3,15) 0
x(4,3,15) 0
f(3,15) 1
x(1,3,16) 1
x(2,3,16) 0
x(4,3,16) 0
f(3,16) 0
x(1,3,17) 0
x(2,3,17) 0
x(4,3,17) 0
f(3,17) 0
x(1,3,18) 0
x(2,3,18) 0
x(4,3,18) 0
f(3,18) 0
x(1,3,19) 0
x(2,3,19) 0
f(3,19) 0
x(1,3,20) 0
x(2,3,20) 0
f(3,20) 0
x(1,3,21) 0
x(2,3,21) 0
f(3,21) 1
x(1,3,22) 0
f(3,22) 1
f(3,23) 1
f(3,24) 1
f(3,25) 1
f(3,26) 1
f(3,27) 1
f(3,28) 1
f(3,29) 1
f(3,30) 1
x(2,4,1) 0
x(3,4,1) 0
f(4,1) 0
x(2,4,2) 0
x(3,4,2) 0
f(4,2) 0
x(2,4,3) 0
x(3,4,3) 0
f(4,3) 1
x(2,4,4) 1
x(3,4,4) 0
f(4,4) 0
x(2,4,5) 0
x(3,4,5) 0
f(4,5) 0
x(2,4,6) 0
x(3,4,6) 0
x(1,4,6) 0
f(4,6) 0
x(2,4,7) 0
x(3,4,7) 0
x(1,4,7) 0
f(4,7) 0
x(2,4,8) 0
x(3,4,8) 0
x(1,4,8) 0
x(4,4,8) 0
f(4,8) 1
x(2,4,9) 0
x(3,4,9) 0
x(1,4,9) 0
x(4,4,9) 0
f(4,9) 1
x(2,4,10) 0
x(3,4,10) 0
x(1,4,10) 0
x(4,4,10) 0
f(4,10) 1
x(2,4,11) 0
x(3,4,11) 0
x(1,4,11) 0
x(4,4,11) 0
f(4,11) 1
x(2,4,12) 0
x(3,4,12) 0
x(1,4,12) 0
x(4,4,12) 0
f(4,12) 1
x(2,4,13) 0
x(1,4,13) 0
x(4,4,13) 0
f(4,13) 1
x(2,4,14) 0
x(1,4,14) 0
x(4,4,14) 0
f(4,14) 1
x(2,4,15) 0
x(1,4,15) 0
x(4,4,15) 1
f(4,15) 0
x(2,4,16) 0
x(1,4,16) 0
x(4,4,16) 0
f(4,16) 0
x(2,4,17) 0
x(1,4,17) 0
x(4,4,17) 0
f(4,17) 0
x(1,4,18) 0
x(4,4,18) 0
f(4,18) 1
x(1,4,19) 0
x(4,4,19) 0
f(4,19) 1
x(1,4,20) 0
x(4,4,20) 0
f(4,20) 1
x(1,4,21) 0
x(4,4,21) 0
f(4,21) 1
x(1,4,22) 1
x(4,4,22) 0
f(4,22) 0
x(1,4,23) 0
f(4,23) 1
x(1,4,24) 0
f(4,24) 1
x(1,4,25) 0
f(4,25) 1
x(1,4,26) 0
f(4,26) 1
x(1,4,27) 0
f(4,27) 1
f(4,28) 1
f(4,29) 1
f(4,30) 1
e(1,2,0) 1
e(2,4,0) 1
e(3,4,0) 0
e(4,1,0) 0
e(1,2,1) 1
e(1,2,2) 1
e(1,2,3) 1
e(1,2,4) 1
e(1,2,5) 1
e(1,2,6) 1
e(1,2,7) 0
e(1,2,8) 0
e(1,2,9) 0
e(1,2,10) 0
e(1,2,11) 0
e(1,2,12) 0
e(1,2,13) 0
e(1,2,14) 0
e(1,2,15) 0
e(1,2,16) 0
e(1,2,17) 0
e(1,2,18) 0
e(1,2,19) 0
e(1,2,20) 0
e(1,2,21) 0
e(2,4,1) 1
e(2,4,2) 1
e(2,4,3) 1
e(2,4,4) 0
e(2,4,5) 0
e(2,4,6) 0
e(2,4,7) 0
e(2,4,8) 0
e(2,4,9) 0
e(2,4,10) 0
e(2,4,11) 0
e(2,4,12) 0
e(2,4,13) 0
e(2,4,14) 0
e(2,4,15) 0
e(2,4,16) 0
e(2,4,17) 0
e(3,4,1) 0
e(3,4,2) 0
e(3,4,3) 0
e(3,4,4) 0
e(3,4,5) 0
e(3,4,6) 0
e(3,4,7) 0
e(3,4,8) 0
e(3,4,9) 0
e(3,4,10) 0
e(3,4,11) 0
e(3,4,12) 0
e(4,1,1) 0
e(4,1,2) 0
e(4,1,3) 0
e(4,1,4) 0
e(4,1,5) 0
e(4,1,6) 0
e(4,1,7) 0
e(4,1,8) 0
e(4,1,9) 0
e(4,1,10) 0
e(4,1,11) 0
e(4,1,12) 0
e(4,1,13) 0
e(4,1,14) 0
e(1,3,1) 0
e(1,3,2) 0
e(1,3,3) 0
e(1,3,4) 0
e(1,3,5) 0
e(1,3,6) 0
e(1,3,7) 0
e(1,3,8) 1
e(1,3,9) 1
e(1,3,10) 1
e(1,3,11) 1
e(1,3,12) 1
e(1,3,13) 1
e(1,3,14) 1
e(1,3,15) 1
e(1,3,16) 0
e(1,3,17) 0
e(1,3,18) 0
e(1,3,19) 0
e(1,3,20) 0
e(1,3,21) 0
e(1,3,22) 0
e(2,3,4) 0
e(2,3,5) 0
e(2,3,6) 0
e(2,3,7) 0
e(2,3,8) 0
e(2,3,9) 0
e(2,3,10) 0
e(2,3,11) 0
e(2,3,12) 0
e(2,3,13) 0
e(2,3,14) 0
e(2,3,15) 0
e(2,3,16) 0
e(2,3,17) 0
e(2,3,18) 0
e(2,3,19) 0
e(2,3,20) 0
e(2,3,21) 0
e(3,3,3) 0
e(3,3,4) 0
e(3,3,5) 0
e(3,3,6) 0
e(3,3,7) 0
e(3,3,8) 0
e(3,3,9) 0
e(3,3,10) 0
e(3,3,11) 0
e(3,3,12) 0
e(3,3,13) 0
e(3,3,14) 0
e(3,3,15) 0
e(4,3,4) 1
e(4,3,5) 1
e(4,3,6) 1
e(4,3,7) 1
e(4,3,8) 1
e(4,3,9) 1
e(4,3,10) 1
e(4,3,11) 0
e(4,3,12) 0
e(4,3,13) 0
e(4,3,14) 0
e(4,3,15) 0
e(4,3,16) 0
e(4,3,17) 0
e(4,3,18) 0
e(1,4,6) 0
e(1,4,7) 0
e(1,4,8) 0
e(1,4,9) 0
e(1,4,10) 0
e(1,4,11) 0
e(1,4,12) 0
e(1,4,13) 0
e(1,4,14) 0
e(1,4,15) 0
e(1,4,16) 0
e(1,4,17) 0
e(1,4,18) 0
e(1,4,19) 0
e(1,4,20) 0
e(1,4,21) 1
e(1,4,22) 0
e(1,4,23) 0
e(1,4,24) 0
e(1,4,25) 0
e(1,4,26) 0
e(1,4,27) 0
e(2,1,7) 0
e(2,1,8) 0
e(2,1,9) 0
e(2,1,10) 0
e(2,1,11) 1
e(2,1,12) 1
e(2,1,13) 1
e(2,1,14) 1
e(2,1,15) 1
e(2,1,16) 0
e(2,1,17) 0
e(2,1,18) 0
e(2,1,19) 0
e(2,1,20) 0
e(2,1,21) 0
e(2,1,22) 0
e(2,1,23) 0
e(2,1,24) 0
e(3,1,8) 0
e(3,1,9) 0
e(3,1,10) 0
e(3,1,11) 0
e(3,1,12) 0
e(3,1,13) 0
e(3,1,14) 0
e(3,1,15) 0
e(3,1,16) 0
e(3,1,17) 0
e(3,1,18) 0
e(3,1,19) 0
e(3,1,20) 0
e(4,4,8) 0
e(4,4,9) 0
e(4,4,10) 0
e(4,4,11) 0
e(4,4,12) 0
e(4,4,13) 0
e(4,4,14) 0
e(4,4,15) 0
e(4,4,16) 0
e(4,4,17) 0
e(4,4,18) 0
e(4,4,19) 0
e(4,4,20) 0
e(4,4,21) 0
e(4,4,22) 0
e(1,1,7) 0
e(1,1,8) 0
e(1,1,9) 0
e(1,1,10) 0
e(1,1,11) 0
e(1,1,12) 0
e(1,1,13) 0
e(1,1,14) 0
e(1,1,15) 0
e(1,1,16) 0
e(1,1,17) 0
e(1,1,18) 0
e(1,1,19) 0
e(1,1,20) 0
e(1,1,21) 0
e(1,1,22) 0
e(1,1,23) 0
e(1,1,24) 0
e(1,1,25) 0
e(1,1,26) 0
e(1,1,27) 0
e(1,1,28) 0
e(2,2,10) 0
e(2,2,11) 0
e(2,2,12) 0
e(2,2,13) 0
e(2,2,14) 0
e(2,2,15) 0
e(2,2,16) 0
e(2,2,17) 0
e(2,2,18) 0
e(2,2,19) 1
e(2,2,20) 1
e(2,2,21) 1
e(2,2,22) 1
e(2,2,23) 0
e(2,2,24) 0
e(2,2,25) 0
e(2,2,26) 0
e(2,2,27) 0
e(3,2,13) 0
e(3,2,14) 0
e(3,2,15) 0
e(3,2,16) 0
e(3,2,17) 0
e(3,2,18) 0
e(3,2,19) 0
e(3,2,20) 0
e(3,2,21) 0
e(3,2,22) 0
e(3,2,23) 0
e(3,2,24) 0
e(3,2,25) 0
e(4,2,11) 0
e(4,2,12) 0
e(4,2,13) 0
e(4,2,14) 0
e(4,2,15) 0
e(4,2,16) 0
e(4,2,17) 0
e(4,2,18) 0
e(4,2,19) 0
e(4,2,20) 0
e(4,2,21) 0
e(4,2,22) 0
e(4,2,23) 0
e(4,2,24) 0
e(4,2,25) 0
